&CONTROL
   verbosity        = 'high'
   prefix           = 'h2'
/
&SYSTEM
   ecutwfc          = 20
   occupations      = 'smearing'
   degauss          = 0.03
   ntyp             = 1
   nat              = 2
   ibrav            = 0
/
&ELECTRONS
/
&IONS
/
&CELL
/

ATOMIC_SPECIES
H 1.008 H.pbe-rrkjus_psl.1.0.0.UPF

K_POINTS automatic
1 1 1  0 0 0

CELL_PARAMETERS angstrom
8.00000000000000 0.00000000000000 0.00000000000000
0.00000000000000 8.00000000000000 0.00000000000000
0.00000000000000 0.00000000000000 8.00000000000000

ATOMIC_POSITIONS angstrom
H 0.0000000000 0.0000000000 0.3685830000 
H 0.0000000000 0.0000000000 -0.3685830000 
