&CONTROL
   verbosity        = 'high'
   prefix           = 'h-afm'
/
&SYSTEM
   ecutwfc          = 30
   occupations      = 'smearing'
   degauss          = 0.02
   nspin            = 2
   ntyp             = 2
   nat              = 2
   starting_magnetization(1) = 1.0
   starting_magnetization(2) = -1.0
   ibrav            = 0
/
&ELECTRONS
/
&IONS
/
&CELL
/

ATOMIC_SPECIES
H 1.008 H.pbe-rrkjus_psl.1.0.0.UPF
H1 1.008 H.pbe-rrkjus_psl.1.0.0.UPF

K_POINTS automatic
4 4 4  0 0 0

CELL_PARAMETERS angstrom
2.87000000000000 0.00000000000000 0.00000000000000
0.00000000000000 2.87000000000000 0.00000000000000
0.00000000000000 0.00000000000000 2.87000000000000

ATOMIC_POSITIONS angstrom
H 0.0000000000 0.0000000000 0.0000000000 
H1 1.4350000000 1.4350000000 1.4350000000 
