&PROJWFC
  DeltaE     =  0.01 
  prefix     =  "co" 
  outdir     =  "../" 
/ 
