&CONTROL
   calculation      = 'scf'
   verbosity        = 'high'
   tstress          = .true.
   tprnfor          = .true.
   outdir           = './tmp'
   prefix           = 'scf'
   disk_io          = 'low'
   pseudo_dir       = '/home/vinicius/scratch/vinicius/pseudos/'
/
&SYSTEM
   ntyp             = 1
   nat              = 2
   ibrav            = 0
/
&ELECTRONS
/
&IONS
/
&CELL
/
&FCP
/
&RISM
/

ATOMIC_SPECIES
Si 28.085 Si.pbe-n-van.UPF

K_POINTS automatic
4 4 4  0 0 0

CELL_PARAMETERS angstrom
0.00000000000000 2.71500000000000 2.71500000000000
2.71500000000000 0.00000000000000 2.71500000000000
2.71500000000000 2.71500000000000 0.00000000000000

ATOMIC_POSITIONS angstrom
Si 0.0000000000 0.0000000000 0.0000000000 
Si 1.3575000000 1.3575000000 1.3575000000 
