&CONTROL
   verbosity        = 'high'
   prefix           = 'test'
/
&SYSTEM
   ntyp             = 1
   nat              = 2
   ibrav            = 0
/
&ELECTRONS
/
&IONS
/
&CELL
/
&FCP
/
&RISM
/

ATOMIC_SPECIES
Si 28.085 Si_dummy.UPF

K_POINTS gamma

CELL_PARAMETERS angstrom
0.00000000000000 2.71500000000000 2.71500000000000
2.71500000000000 0.00000000000000 2.71500000000000
2.71500000000000 2.71500000000000 0.00000000000000

ATOMIC_POSITIONS angstrom
Si 0.0000000000 0.0000000000 0.0000000000 
Si 1.3575000000 1.3575000000 1.3575000000 
