&CONTROL
   verbosity        = 'high'
   prefix           = 'al-fcc111'
/
&SYSTEM
   ecutwfc          = 30
   occupations      = 'smearing'
   degauss          = 0.03
   ntyp             = 1
   nat              = 4
   ibrav            = 0
/
&ELECTRONS
/
&IONS
/
&CELL
/

ATOMIC_SPECIES
Al 26.9815385 Al.pbe-n-kjpaw_psl.1.0.0.UPF

K_POINTS automatic
8 8 1  0 0 0

CELL_PARAMETERS angstrom
2.86378246380552 0.00000000000000 0.00000000000000
1.43189123190276 2.48010836456797 0.00000000000000
0.00000000000000 0.00000000000000 17.01480577065395

ATOMIC_POSITIONS angstrom
Al 0.0000000000 0.0000000000 0.1000000000 
Al 1.4318912319 0.8267027882 2.4382685902 
Al -0.0000000000 1.6534055764 4.7765371804 
Al 0.0000000000 0.0000000000 7.1148057707 
